NAME : kroA100.24051.tour
COMMENT : Cost = 8040_24051
COMMENT : Found by LKH [Keld Helsgaun] Thu Nov 16 17:24:53 2017
TYPE : TOUR
DIMENSION : 102
TOUR_SECTION
1
63
6
49
90
10
84
72
21
74
59
36
99
38
24
18
79
53
88
16
94
22
70
66
26
65
4
19
75
97
56
80
31
89
42
8
92
101
47
32
11
17
15
45
91
98
23
77
60
62
35
86
27
20
12
55
83
29
30
39
85
68
50
44
73
69
81
25
61
58
28
102
93
51
87
57
9
7
34
46
43
3
14
71
41
100
48
52
78
96
5
37
33
76
13
95
82
2
54
40
64
67
-1
EOF
